PROBLEM NAME: eil51_n18
KNAPSACK DATA TYPE: multiple strongly correlated
DIMENSION: 18
NUMBER OF ITEMS: 17
CAPACITY OF KNAPSACK: 4382
MIN SPEED: 0.1
MAX SPEED: 1
RENTING RATIO: 9.82
EDGE_WEIGHT_TYPE: CEIL_2D
NODE_COORD_SECTION	(INDEX, X, Y):
1	37	52
2	49	49
3	20	26
4	21	47
5	17	63
6	31	62
7	51	21
8	42	41
9	31	32
10	27	23
11	17	33
12	7	38
13	58	27
14	38	46
15	32	22
16	5	6
17	25	55
18	48	28
ITEMS SECTION	(INDEX, PROFIT, WEIGHT, ASSIGNED NODE NUMBER):
1	1128	928	14
2	1013	813	8
3	990	790	2
4	973	773	13
5	882	682	7
6	852	652	18
7	688	488	9
8	677	477	15
9	593	393	10
10	564	264	16
11	564	364	3
12	553	353	11
13	534	234	12
14	445	245	4
15	442	242	17
16	425	225	5
17	311	111	6
